(declare-fun ExpandObjSwitcher () Real)
(declare-fun Constructed_Argument_t () String)
(declare-fun Constructed_Argument_Array_Length () Int)
(declare-fun Constructed_Argument_2_t () String)
(declare-fun Constructed_Argument_2_Array_Length () Int)
(declare-fun CreateAsClass () Bool)
(assert (= ExpandObjSwitcher 0.0))
(assert (= Constructed_Argument_t "array_number"))
(assert (>= Constructed_Argument_Array_Length 0))
(assert (= Constructed_Argument_2_t "array_string"))
(assert (>= Constructed_Argument_2_Array_Length 0))
(assert CreateAsClass)
(check-sat)
